p cnf 12 32
1 2 3 0
4 5 6 0
7 8 9 0
10 11 12 0
-1 -2 0
-1 -3 0
-2 -3 0
-4 -5 0
-4 -6 0
-5 -6 0
-7 -8 0
-7 -9 0
-8 -9 0
-10 -11 0
-10 -12 0
-11 -12 0
-1 -5 0
-2 -4 0
-2 -6 0
-3 -5 0
-7 -11 0
-8 -10 0
-8 -12 0
-9 -11 0
-1 -9 0
-2 -9 0
-3 -7 0
-3 -8 0
-4 -12 0
-5 -12 0
-6 -10 0
-6 -11 0
